%mem=2GB
%nproc=2
# HF/6-31G
!

Structure: 4

  0  1
  H     1.025000   1.934000   0.877000
  C     1.149000   0.914000   1.111000
  H     0.798000   0.775000   2.106000
  H     2.196000   0.745000   1.108000
  C     0.310000   0.072000   0.131000
  O    -0.818000   0.458000  -0.242000
  N     0.925000  -1.071000  -0.209000
  H     1.885000  -1.127000   0.001000
  C     0.396000  -2.099000  -1.090000
  H    -0.262000  -1.586000  -1.805000
  H     1.173000  -2.620000  -1.650000
  H    -0.346000  -2.695000  -0.571000

1 2 1.0 
2 3 1.0 4 1.0 5 1.0 
3 
4 
5 6 1.0 7 1.0 
6 
7 8 1.0 9 1.0 
8 
9 10 1.0 11 1.0 12 1.0 
10 
11 
12

