%mem=2GB
%nproc=2
# HF/6-31G
!

Structure: 0

  0  1
  H     1.903000   0.539000   1.460000
  C     1.129000   1.061000   0.946000
  H     1.545000   1.793000   0.224000
  H     0.436000   1.574000   1.617000
  C     0.330000   0.027000   0.210000
  O    -0.884000  -0.095000   0.425000
  N     1.052000  -0.834000  -0.534000
  H     1.999000  -0.650000  -0.758000
  C     0.344000  -1.872000  -1.331000
  H    -0.229000  -1.348000  -2.117000
  H     1.064000  -2.583000  -1.791000
  H    -0.343000  -2.349000  -0.716000

1 2 1.0 
2 3 1.0 4 1.0 5 1.0 
3 
4 
5 6 1.0 7 1.0 
6 
7 8 1.0 9 1.0 
8 
9 10 1.0 11 1.0 12 1.0 
10 
11 
12

