%mem=2GB
%nproc=2
# HF/6-31G
!

Structure: 1

  0  1
  H     0.947000   2.055000   0.618000
  C     1.157000   1.053000   1.039000
  H     0.779000   1.034000   2.054000
  H     2.242000   0.812000   1.000000
  C     0.329000   0.032000   0.233000
  O    -0.919000   0.132000   0.231000
  N     0.994000  -0.922000  -0.492000
  H     1.989000  -0.832000  -0.554000
  C     0.400000  -1.999000  -1.293000
  H    -0.195000  -1.584000  -2.123000
  H     1.132000  -2.603000  -1.784000
  H    -0.152000  -2.718000  -0.646000

1 2 1.0 
2 3 1.0 4 1.0 5 1.0 
3 
4 
5 6 1.0 7 1.0 
6 
7 8 1.0 9 1.0 
8 
9 10 1.0 11 1.0 12 1.0 
10 
11 
12

