--Link1--
%chk=molecule
#HF/6-31G* SCF=tight Test Pop=MK iop(6/33=2) iop(6/42=6) opt

remark line goes here

0   1
    C
    C    1      b2
    C    2      b3    1      a3
    C    3      b4    2      a4    1      t4
    C    4      b5    3      a5    2      t5
    C    1      b6    2      a6    3      t6
    C    4      b7    3      a7    2      t7
    C    7      b8    4      a8    3      t8
    C    5      b9    4      a9    3      t9
    C    7     b10    4     a10    3     t10
    C   10     b11    7     a11    4     t11
    C   11     b12   10     a12    7     t12
    C    8     b13    7     a13    4     t13
    C   10     b14    7     a14    4     t14
    C    3     b15    2     a15    1     t15
    C   13     b16    8     a16    7     t16
    C   16     b17   13     a17    8     t17
    C    9     b18    5     a18    4     t18
    C   18     b19    9     a19    5     t19
    C    6     b20    1     a20    2     t20
    C    1     b21    2     a21    3     t21
    C   20     b22    6     a22    1     t22
    C   19     b23   18     a23    9     t23
    C   17     b24   16     a24   13     t24
    C   16     b25   13     a25    8     t25
    C   12     b26   11     a26   10     t26
    C   11     b27   10     a27    7     t27
    C   14     b28   10     a28    7     t28
    C   15     b29    3     a29    2     t29
    C    2     b30    1     a30    6     t30
    C   30     b31    2     a31    1     t31
    C   21     b32    1     a32    2     t32
    C   22     b33   20     a33    6     t33
    C   23     b34   19     a34   18     t34
    C   24     b35   17     a35   16     t35
    C   25     b36   16     a36   13     t36
    C   26     b37   12     a37   11     t37
    C   27     b38   11     a38   10     t38
    C   28     b39   14     a39   10     t39
    C   29     b40   15     a40    3     t40
    C   40     b41   29     a41   15     t41
    C   31     b42   30     a42    2     t42
    C   32     b43   21     a43    1     t43
    C   33     b44   22     a44   20     t44
    C   34     b45   23     a45   19     t45
    C   35     b46   24     a46   17     t46
    C   36     b47   25     a47   16     t47
    C   37     b48   26     a48   12     t48
    C   38     b49   27     a49   11     t49
    C   39     b50   28     a50   14     t50
    C   41     b51   40     a51   29     t51
    C   42     b52   31     a52   30     t52
    C   44     b53   33     a53   22     t53
    C   46     b54   35     a54   24     t54
    C   48     b55   37     a55   26     t55
    C   55     b56   48     a56   37     t56
    C   51     b57   41     a57   40     t57
    C   52     b58   42     a58   31     t58
    C   53     b59   44     a59   33     t59
    C   54     b60   46     a60   35     t60
Variables:
b2=   1.3802
b3=   1.3696
a3= 120.0376
b4=   1.3803
a4= 120.0082
t4=  -0.0765
b5=   1.3708
a5= 119.9971
t5=   0.0720
b6=   1.3703
a6= 119.9700
t6=   0.0606
b7=   1.3708
a7= 119.9520
t7= 138.1632
b8=   1.3699
a8= 107.9667
t8= -142.5127
b9=   1.3701
a9= 107.9988
t9= 142.5005
b10=   1.3810
a10= 120.0660
t10=   0.0099
b11=   1.3712
a11= 120.0895
t11= -138.3144
b12=   1.3796
a12= 119.9217
t12=   0.1445
b13=   1.3813
a13= 120.0131
t13= 142.6817
b14=   1.3696
a14= 119.9697
t14=   0.0456
b15=   1.3703
a15= 108.0487
t15= 142.5729
b16=   1.3691
a16= 120.0426
t16= -138.3611
b17=   1.3798
a17= 120.0678
t17=   0.1000
b18=   1.3800
a18= 120.0707
t18= -142.5244
b19=   1.3709
a19= 119.9446
t19=  -0.0347
b20=   1.3702
a20= 107.9757
t20= -142.5647
b21=   1.3709
a21= 119.9759
t21= -138.1191
b22=   1.3710
a22= 107.9849
t22=  -0.0087
b23=   1.3714
a23= 108.0329
t23= 142.8207
b24=   1.3689
a24= 120.2264
t24= 137.9809
b25=   1.3739
a25= 108.1162
t25= 143.0729
b26=   1.3736
a26= 120.1073
t26= 138.5101
b27=   1.3697
a27= 107.8408
t27= 142.7534
b28=   1.3720
a28= 108.0573
t28= -142.8018
b29=   1.3704
a29= 107.9404
t29=  -0.0417
b30=   1.3704
a30= 119.9362
t30= 138.1678
b31=   1.3804
a31= 120.0809
t31=   0.0309
b32=   1.3803
a32= 120.0553
t32=   0.0040
b33=   1.3805
a33= 120.0386
t33= 142.7165
b34=   1.3801
a34= 119.9034
t34= -142.5653
b35=   1.3853
a35= 120.0100
t35=   0.6688
b36=   1.3854
a36= 119.7790
t36= -143.4345
b37=   1.3846
a37= 119.7538
t37=   0.5414
b38=   1.3842
a38= 120.0621
t38= -143.0633
b39=   1.3795
a39= 119.9126
t39= 142.5716
b40=   1.3804
a40= 119.9915
t40= -142.6416
b41=   1.3697
a41= 120.0563
t41= 138.4098
b42=   1.3719
a42= 120.0685
t42= -138.3430
b43=   1.3712
a43= 120.0833
t43= 138.3773
b44=   1.3689
a44= 120.0779
t44= -138.3722
b45=   1.3722
a45= 120.1160
t45= 138.5458
b46=   1.3750
a46= 119.7816
t46= -139.1255
b47=   1.3430
a47= 119.0907
t47= 138.5058
b48=   1.3430
a48= 119.2330
t48= -138.9281
b49=   1.3736
a49= 119.8615
t49= 139.1326
b50=   1.3727
a50= 120.1051
t50= -138.5142
b51=   1.3724
a51= 108.0854
t51= -143.1256
b52=   1.3693
a52= 107.8515
t52= 142.7447
b53=   1.3732
a53= 108.1413
t53= 143.0023
b54=   1.3423
a54= 108.1047
t54= 142.9599
b55=   1.4343
a55= 107.3218
t55= 142.0442
b56=   1.4352
a56= 120.1620
t56= -142.2343
b57=   1.3850
a57= 119.7783
t57= 143.3779
b58=   1.3844
a58= 120.0254
t58= -143.0478
b59=   1.3850
a59= 119.8596
t59= -143.4368
b60=   1.4363
a60= 120.0895
t60= -141.5017


